n_res = 4;
rcap = [15, 18, 89, 86];
rtype = [1, 1, 2, 2];
n_tasks = 16;
modes = [ {1, 2, 3}, {4, 5, 6}, {7, 8, 9}, {10, 11, 12}, {13, 14, 15}, {16, 17, 18}, {19, 20, 21}, {22, 23, 24}, {25, 26, 27}, {28, 29, 30}, {31, 32, 33}, {34, 35, 36}, {37, 38, 39}, {40, 41, 42}, {43, 44, 45}, {46, 47, 48} ];
succ = [ {5, 6, 13}, {4}, {10, 11, 12}, {7, 9}, {8}, {16}, {11}, {10, 14, 15}, {16}, {16}, {14, 15}, {14}, {15}, {}, {}, {} ];
n_opt = 48;
dur = [1, 7, 8, 3, 3, 4, 3, 4, 6, 4, 6, 7, 1, 4, 8, 5, 9, 10, 2, 3, 7, 7, 9, 10, 1, 4, 9, 5, 6, 8, 3, 4, 9, 4, 7, 10, 2, 6, 10, 3, 6, 7, 2, 3, 3, 5, 10, 10];
rreq = [|  0,  9,  4,  0,  0,  1,  0,  0,  1,  0,  0,  0,  0,  2,  2,  0,  5,  0,  0,  0,  0,  0,  9,  0,  0,  0,  0,  5,  3,  3,  0,  4,  0,  0,  0,  0,  0,  8,  4,  0,  4,  0,  3,  3,  0,  0,  3,  5
        |  2,  0,  0,  3,  4,  0,  4,  4,  0,  5,  4,  4,  7,  0,  0,  7,  0,  5,  3,  2,  1,  8,  0,  8,  6,  5,  3,  0,  0,  0,  5,  0,  3,  8,  8,  8,  3,  0,  0,  5,  0,  5,  0,  0,  5,  8,  0,  0
        |  7,  7,  7,  9,  8,  5,  8,  6,  5,  7,  6,  4,  4,  4,  2,  7,  6,  6,  9,  8,  8,  6,  5,  4,  9,  5,  3,  3,  2,  1, 10,  8,  7,  7,  7,  6,  3,  2,  1,  4,  3,  3,  6,  4,  5,  9,  5,  4
        |  6,  3,  2,  8,  8,  7,  7,  6,  5,  6,  5,  5,  5,  4,  1,  5,  4,  2,  3,  3,  2,  8,  6,  4,  4,  4,  2, 10,  9,  8, 10,  9,  9,  9,  5,  1, 10,  9,  9,  7,  5,  4,  3,  3,  2,  6,  2,  2 |];
